p edge 188 1861
v 1 325
v 2 303
v 3 394
v 4 530
v 5 611
v 6 640
v 7 607
v 8 490
v 9 347
v 10 348
v 11 291
v 12 641
v 13 512
v 14 349
v 15 221
v 16 462
v 17 414
v 18 562
v 19 525
v 20 615
v 21 345
v 22 456
v 23 687
v 24 606
v 25 209
v 26 245
v 27 523
v 28 586
v 29 458
v 30 296
v 31 289
v 32 510
v 33 496
v 34 415
v 35 626
v 36 252
v 37 245
v 38 250
v 39 507
v 40 384
v 41 223
v 42 488
v 43 657
v 44 436
v 45 344
v 46 308
v 47 425
v 48 703
v 49 568
v 50 548
v 51 217
v 52 563
v 53 246
v 54 522
v 55 401
v 56 533
v 57 335
v 58 465
v 59 216
v 60 503
v 61 242
v 62 502
v 63 549
v 64 473
v 65 305
v 66 213
v 67 395
v 68 616
v 69 544
v 70 606
v 71 299
v 72 293
v 73 258
v 74 350
v 75 317
v 76 313
v 77 289
v 78 477
v 79 368
v 80 229
v 81 259
v 82 249
v 83 439
v 84 274
v 85 247
v 86 462
v 87 417
v 88 494
v 89 566
v 90 656
v 91 330
v 92 665
v 93 312
v 94 596
v 95 631
v 96 312
v 97 209
v 98 633
v 99 218
v 100 288
v 101 554
v 102 407
v 103 266
v 104 248
v 105 514
v 106 292
v 107 668
v 108 344
v 109 340
v 110 465
v 111 478
v 112 653
v 113 362
v 114 354
v 115 690
v 116 674
v 117 419
v 118 393
v 119 512
v 120 397
v 121 236
v 122 335
v 123 462
v 124 565
v 125 618
v 126 443
v 127 675
v 128 364
v 129 701
v 130 562
v 131 245
v 132 218
v 133 580
v 134 645
v 135 687
v 136 640
v 137 599
v 138 300
v 139 394
v 140 376
v 141 517
v 142 378
v 143 475
v 144 510
v 145 251
v 146 694
v 147 542
v 148 691
v 149 324
v 150 660
v 151 633
v 152 261
v 153 600
v 154 449
v 155 376
v 156 238
v 157 404
v 158 487
v 159 459
v 160 649
v 161 463
v 162 247
v 163 688
v 164 546
v 165 622
v 166 268
v 167 538
v 168 594
v 169 474
v 170 506
v 171 305
v 172 657
v 173 261
v 174 516
v 175 454
v 176 640
v 177 424
v 178 603
v 179 697
v 180 407
v 181 459
v 182 250
v 183 312
v 184 631
v 185 233
v 186 418
v 187 551
v 188 220
e 1 2
e 1 3
e 1 4
e 1 5
e 1 6
e 1 7
e 1 8
e 1 9
e 1 10
e 1 11
e 1 12
e 1 39
e 1 53
e 1 67
e 1 89
e 1 100
e 1 111
e 1 132
e 1 168
e 1 178
e 2 3
e 2 4
e 2 5
e 2 6
e 2 7
e 2 8
e 2 9
e 2 10
e 2 11
e 2 12
e 2 15
e 2 40
e 2 112
e 2 122
e 2 152
e 2 160
e 2 169
e 2 179
e 3 4
e 3 5
e 3 6
e 3 7
e 3 8
e 3 9
e 3 10
e 3 11
e 3 12
e 3 16
e 3 30
e 3 41
e 3 54
e 3 68
e 3 79
e 3 113
e 3 123
e 3 133
e 3 142
e 3 153
e 3 170
e 3 180
e 4 5
e 4 6
e 4 7
e 4 8
e 4 9
e 4 10
e 4 11
e 4 12
e 4 19
e 4 31
e 4 44
e 4 62
e 4 70
e 4 90
e 4 103
e 4 126
e 4 144
e 4 181
e 5 6
e 5 7
e 5 8
e 5 9
e 5 10
e 5 11
e 5 12
e 5 20
e 5 32
e 5 56
e 5 71
e 5 104
e 5 115
e 5 127
e 5 145
e 5 163
e 5 171
e 5 182
e 6 7
e 6 8
e 6 9
e 6 10
e 6 11
e 6 12
e 6 45
e 6 81
e 6 91
e 7 8
e 7 9
e 7 10
e 7 11
e 7 12
e 7 21
e 7 46
e 7 72
e 7 82
e 7 92
e 7 146
e 7 183
e 8 9
e 8 10
e 8 11
e 8 12
e 8 22
e 8 33
e 8 47
e 8 63
e 8 73
e 8 83
e 8 93
e 8 135
e 8 156
e 8 172
e 9 10
e 9 11
e 9 12
e 9 24
e 9 35
e 9 57
e 9 64
e 9 74
e 9 95
e 9 106
e 9 116
e 9 137
e 9 148
e 9 165
e 9 185
e 10 11
e 10 12
e 10 25
e 10 36
e 10 49
e 10 75
e 10 85
e 10 107
e 10 117
e 10 138
e 10 149
e 10 174
e 10 186
e 11 12
e 11 26
e 11 50
e 11 58
e 11 86
e 11 108
e 11 118
e 11 129
e 11 139
e 11 166
e 11 175
e 11 187
e 12 27
e 12 37
e 12 65
e 12 76
e 12 96
e 12 119
e 12 130
e 12 140
e 12 157
e 13 14
e 13 15
e 13 16
e 13 17
e 13 18
e 13 19
e 13 20
e 13 21
e 13 22
e 13 23
e 13 24
e 13 25
e 13 26
e 13 27
e 13 28
e 13 29
e 13 38
e 13 77
e 13 88
e 13 98
e 13 110
e 13 120
e 13 131
e 13 141
e 13 150
e 13 159
e 14 15
e 14 16
e 14 17
e 14 18
e 14 19
e 14 20
e 14 21
e 14 22
e 14 23
e 14 24
e 14 25
e 14 26
e 14 27
e 14 28
e 14 52
e 14 60
e 14 78
e 14 99
e 14 121
e 14 151
e 14 177
e 15 16
e 15 17
e 15 18
e 15 19
e 15 20
e 15 21
e 15 22
e 15 23
e 15 24
e 15 25
e 15 26
e 15 27
e 15 28
e 15 40
e 15 112
e 15 122
e 15 152
e 15 160
e 15 169
e 15 179
e 16 17
e 16 18
e 16 19
e 16 20
e 16 21
e 16 22
e 16 23
e 16 24
e 16 25
e 16 26
e 16 27
e 16 28
e 16 30
e 16 41
e 16 54
e 16 68
e 16 79
e 16 113
e 16 123
e 16 133
e 16 142
e 16 153
e 16 170
e 16 180
e 17 18
e 17 19
e 17 20
e 17 21
e 17 22
e 17 23
e 17 24
e 17 25
e 17 26
e 17 27
e 17 28
e 17 42
e 17 55
e 17 69
e 17 80
e 17 101
e 17 124
e 17 143
e 17 154
e 17 161
e 18 19
e 18 20
e 18 21
e 18 22
e 18 23
e 18 24
e 18 25
e 18 26
e 18 27
e 18 28
e 18 43
e 18 61
e 18 102
e 18 114
e 18 125
e 18 134
e 18 155
e 18 162
e 19 20
e 19 21
e 19 22
e 19 23
e 19 24
e 19 25
e 19 26
e 19 27
e 19 28
e 19 31
e 19 44
e 19 62
e 19 70
e 19 90
e 19 103
e 19 126
e 19 144
e 19 181
e 20 21
e 20 22
e 20 23
e 20 24
e 20 25
e 20 26
e 20 27
e 20 28
e 20 32
e 20 56
e 20 71
e 20 104
e 20 115
e 20 127
e 20 145
e 20 163
e 20 171
e 20 182
e 21 22
e 21 23
e 21 24
e 21 25
e 21 26
e 21 27
e 21 28
e 21 46
e 21 72
e 21 82
e 21 92
e 21 146
e 21 183
e 22 23
e 22 24
e 22 25
e 22 26
e 22 27
e 22 28
e 22 33
e 22 47
e 22 63
e 22 73
e 22 83
e 22 93
e 22 135
e 22 156
e 22 172
e 23 24
e 23 25
e 23 26
e 23 27
e 23 28
e 23 34
e 23 48
e 23 84
e 23 94
e 23 105
e 23 128
e 23 136
e 23 147
e 23 164
e 23 173
e 23 184
e 24 25
e 24 26
e 24 27
e 24 28
e 24 35
e 24 57
e 24 64
e 24 74
e 24 95
e 24 106
e 24 116
e 24 137
e 24 148
e 24 165
e 24 185
e 25 26
e 25 27
e 25 28
e 25 36
e 25 49
e 25 75
e 25 85
e 25 107
e 25 117
e 25 138
e 25 149
e 25 174
e 25 186
e 26 27
e 26 28
e 26 50
e 26 58
e 26 86
e 26 108
e 26 118
e 26 129
e 26 139
e 26 166
e 26 175
e 26 187
e 27 28
e 27 37
e 27 65
e 27 76
e 27 96
e 27 119
e 27 130
e 27 140
e 27 157
e 28 51
e 28 59
e 28 66
e 28 87
e 28 97
e 28 109
e 28 158
e 28 167
e 28 176
e 28 188
e 29 30
e 29 31
e 29 32
e 29 33
e 29 34
e 29 35
e 29 36
e 29 37
e 29 38
e 29 77
e 29 88
e 29 98
e 29 110
e 29 120
e 29 131
e 29 141
e 29 150
e 29 159
e 30 31
e 30 32
e 30 33
e 30 34
e 30 35
e 30 36
e 30 37
e 30 41
e 30 54
e 30 68
e 30 79
e 30 113
e 30 123
e 30 133
e 30 142
e 30 153
e 30 170
e 30 180
e 31 32
e 31 33
e 31 34
e 31 35
e 31 36
e 31 37
e 31 44
e 31 62
e 31 70
e 31 90
e 31 103
e 31 126
e 31 144
e 31 181
e 32 33
e 32 34
e 32 35
e 32 36
e 32 37
e 32 56
e 32 71
e 32 104
e 32 115
e 32 127
e 32 145
e 32 163
e 32 171
e 32 182
e 33 34
e 33 35
e 33 36
e 33 37
e 33 47
e 33 63
e 33 73
e 33 83
e 33 93
e 33 135
e 33 156
e 33 172
e 34 35
e 34 36
e 34 37
e 34 48
e 34 84
e 34 94
e 34 105
e 34 128
e 34 136
e 34 147
e 34 164
e 34 173
e 34 184
e 35 36
e 35 37
e 35 57
e 35 64
e 35 74
e 35 95
e 35 106
e 35 116
e 35 137
e 35 148
e 35 165
e 35 185
e 36 37
e 36 49
e 36 75
e 36 85
e 36 107
e 36 117
e 36 138
e 36 149
e 36 174
e 36 186
e 37 65
e 37 76
e 37 96
e 37 119
e 37 130
e 37 140
e 37 157
e 38 39
e 38 40
e 38 41
e 38 42
e 38 43
e 38 44
e 38 45
e 38 46
e 38 47
e 38 48
e 38 49
e 38 50
e 38 51
e 38 77
e 38 88
e 38 98
e 38 110
e 38 120
e 38 131
e 38 141
e 38 150
e 38 159
e 39 40
e 39 41
e 39 42
e 39 43
e 39 44
e 39 45
e 39 46
e 39 47
e 39 48
e 39 49
e 39 50
e 39 51
e 39 53
e 39 67
e 39 89
e 39 100
e 39 111
e 39 132
e 39 168
e 39 178
e 40 41
e 40 42
e 40 43
e 40 44
e 40 45
e 40 46
e 40 47
e 40 48
e 40 49
e 40 50
e 40 51
e 40 112
e 40 122
e 40 152
e 40 160
e 40 169
e 40 179
e 41 42
e 41 43
e 41 44
e 41 45
e 41 46
e 41 47
e 41 48
e 41 49
e 41 50
e 41 51
e 41 54
e 41 68
e 41 79
e 41 113
e 41 123
e 41 133
e 41 142
e 41 153
e 41 170
e 41 180
e 42 43
e 42 44
e 42 45
e 42 46
e 42 47
e 42 48
e 42 49
e 42 50
e 42 51
e 42 55
e 42 69
e 42 80
e 42 101
e 42 124
e 42 143
e 42 154
e 42 161
e 43 44
e 43 45
e 43 46
e 43 47
e 43 48
e 43 49
e 43 50
e 43 51
e 43 61
e 43 102
e 43 114
e 43 125
e 43 134
e 43 155
e 43 162
e 44 45
e 44 46
e 44 47
e 44 48
e 44 49
e 44 50
e 44 51
e 44 62
e 44 70
e 44 90
e 44 103
e 44 126
e 44 144
e 44 181
e 45 46
e 45 47
e 45 48
e 45 49
e 45 50
e 45 51
e 45 81
e 45 91
e 46 47
e 46 48
e 46 49
e 46 50
e 46 51
e 46 72
e 46 82
e 46 92
e 46 146
e 46 183
e 47 48
e 47 49
e 47 50
e 47 51
e 47 63
e 47 73
e 47 83
e 47 93
e 47 135
e 47 156
e 47 172
e 48 49
e 48 50
e 48 51
e 48 84
e 48 94
e 48 105
e 48 128
e 48 136
e 48 147
e 48 164
e 48 173
e 48 184
e 49 50
e 49 51
e 49 75
e 49 85
e 49 107
e 49 117
e 49 138
e 49 149
e 49 174
e 49 186
e 50 51
e 50 58
e 50 86
e 50 108
e 50 118
e 50 129
e 50 139
e 50 166
e 50 175
e 50 187
e 51 59
e 51 66
e 51 87
e 51 97
e 51 109
e 51 158
e 51 167
e 51 176
e 51 188
e 52 53
e 52 54
e 52 55
e 52 56
e 52 57
e 52 58
e 52 59
e 52 60
e 52 78
e 52 99
e 52 121
e 52 151
e 52 177
e 53 54
e 53 55
e 53 56
e 53 57
e 53 58
e 53 59
e 53 67
e 53 89
e 53 100
e 53 111
e 53 132
e 53 168
e 53 178
e 54 55
e 54 56
e 54 57
e 54 58
e 54 59
e 54 68
e 54 79
e 54 113
e 54 123
e 54 133
e 54 142
e 54 153
e 54 170
e 54 180
e 55 56
e 55 57
e 55 58
e 55 59
e 55 69
e 55 80
e 55 101
e 55 124
e 55 143
e 55 154
e 55 161
e 56 57
e 56 58
e 56 59
e 56 71
e 56 104
e 56 115
e 56 127
e 56 145
e 56 163
e 56 171
e 56 182
e 57 58
e 57 59
e 57 64
e 57 74
e 57 95
e 57 106
e 57 116
e 57 137
e 57 148
e 57 165
e 57 185
e 58 59
e 58 86
e 58 108
e 58 118
e 58 129
e 58 139
e 58 166
e 58 175
e 58 187
e 59 66
e 59 87
e 59 97
e 59 109
e 59 158
e 59 167
e 59 176
e 59 188
e 60 61
e 60 62
e 60 63
e 60 64
e 60 65
e 60 66
e 60 78
e 60 99
e 60 121
e 60 151
e 60 177
e 61 62
e 61 63
e 61 64
e 61 65
e 61 66
e 61 102
e 61 114
e 61 125
e 61 134
e 61 155
e 61 162
e 62 63
e 62 64
e 62 65
e 62 66
e 62 70
e 62 90
e 62 103
e 62 126
e 62 144
e 62 181
e 63 64
e 63 65
e 63 66
e 63 73
e 63 83
e 63 93
e 63 135
e 63 156
e 63 172
e 64 65
e 64 66
e 64 74
e 64 95
e 64 106
e 64 116
e 64 137
e 64 148
e 64 165
e 64 185
e 65 66
e 65 76
e 65 96
e 65 119
e 65 130
e 65 140
e 65 157
e 66 87
e 66 97
e 66 109
e 66 158
e 66 167
e 66 176
e 66 188
e 67 68
e 67 69
e 67 70
e 67 71
e 67 72
e 67 73
e 67 74
e 67 75
e 67 76
e 67 89
e 67 100
e 67 111
e 67 132
e 67 168
e 67 178
e 68 69
e 68 70
e 68 71
e 68 72
e 68 73
e 68 74
e 68 75
e 68 76
e 68 79
e 68 113
e 68 123
e 68 133
e 68 142
e 68 153
e 68 170
e 68 180
e 69 70
e 69 71
e 69 72
e 69 73
e 69 74
e 69 75
e 69 76
e 69 80
e 69 101
e 69 124
e 69 143
e 69 154
e 69 161
e 70 71
e 70 72
e 70 73
e 70 74
e 70 75
e 70 76
e 70 90
e 70 103
e 70 126
e 70 144
e 70 181
e 71 72
e 71 73
e 71 74
e 71 75
e 71 76
e 71 104
e 71 115
e 71 127
e 71 145
e 71 163
e 71 171
e 71 182
e 72 73
e 72 74
e 72 75
e 72 76
e 72 82
e 72 92
e 72 146
e 72 183
e 73 74
e 73 75
e 73 76
e 73 83
e 73 93
e 73 135
e 73 156
e 73 172
e 74 75
e 74 76
e 74 95
e 74 106
e 74 116
e 74 137
e 74 148
e 74 165
e 74 185
e 75 76
e 75 85
e 75 107
e 75 117
e 75 138
e 75 149
e 75 174
e 75 186
e 76 96
e 76 119
e 76 130
e 76 140
e 76 157
e 77 78
e 77 79
e 77 80
e 77 81
e 77 82
e 77 83
e 77 84
e 77 85
e 77 86
e 77 87
e 77 88
e 77 98
e 77 110
e 77 120
e 77 131
e 77 141
e 77 150
e 77 159
e 78 79
e 78 80
e 78 81
e 78 82
e 78 83
e 78 84
e 78 85
e 78 86
e 78 87
e 78 99
e 78 121
e 78 151
e 78 177
e 79 80
e 79 81
e 79 82
e 79 83
e 79 84
e 79 85
e 79 86
e 79 87
e 79 113
e 79 123
e 79 133
e 79 142
e 79 153
e 79 170
e 79 180
e 80 81
e 80 82
e 80 83
e 80 84
e 80 85
e 80 86
e 80 87
e 80 101
e 80 124
e 80 143
e 80 154
e 80 161
e 81 82
e 81 83
e 81 84
e 81 85
e 81 86
e 81 87
e 81 91
e 82 83
e 82 84
e 82 85
e 82 86
e 82 87
e 82 92
e 82 146
e 82 183
e 83 84
e 83 85
e 83 86
e 83 87
e 83 93
e 83 135
e 83 156
e 83 172
e 84 85
e 84 86
e 84 87
e 84 94
e 84 105
e 84 128
e 84 136
e 84 147
e 84 164
e 84 173
e 84 184
e 85 86
e 85 87
e 85 107
e 85 117
e 85 138
e 85 149
e 85 174
e 85 186
e 86 87
e 86 108
e 86 118
e 86 129
e 86 139
e 86 166
e 86 175
e 86 187
e 87 97
e 87 109
e 87 158
e 87 167
e 87 176
e 87 188
e 88 89
e 88 90
e 88 91
e 88 92
e 88 93
e 88 94
e 88 95
e 88 96
e 88 97
e 88 98
e 88 110
e 88 120
e 88 131
e 88 141
e 88 150
e 88 159
e 89 90
e 89 91
e 89 92
e 89 93
e 89 94
e 89 95
e 89 96
e 89 97
e 89 100
e 89 111
e 89 132
e 89 168
e 89 178
e 90 91
e 90 92
e 90 93
e 90 94
e 90 95
e 90 96
e 90 97
e 90 103
e 90 126
e 90 144
e 90 181
e 91 92
e 91 93
e 91 94
e 91 95
e 91 96
e 91 97
e 92 93
e 92 94
e 92 95
e 92 96
e 92 97
e 92 146
e 92 183
e 93 94
e 93 95
e 93 96
e 93 97
e 93 135
e 93 156
e 93 172
e 94 95
e 94 96
e 94 97
e 94 105
e 94 128
e 94 136
e 94 147
e 94 164
e 94 173
e 94 184
e 95 96
e 95 97
e 95 106
e 95 116
e 95 137
e 95 148
e 95 165
e 95 185
e 96 97
e 96 119
e 96 130
e 96 140
e 96 157
e 97 109
e 97 158
e 97 167
e 97 176
e 97 188
e 98 99
e 98 100
e 98 101
e 98 102
e 98 103
e 98 104
e 98 105
e 98 106
e 98 107
e 98 108
e 98 109
e 98 110
e 98 120
e 98 131
e 98 141
e 98 150
e 98 159
e 99 100
e 99 101
e 99 102
e 99 103
e 99 104
e 99 105
e 99 106
e 99 107
e 99 108
e 99 109
e 99 121
e 99 151
e 99 177
e 100 101
e 100 102
e 100 103
e 100 104
e 100 105
e 100 106
e 100 107
e 100 108
e 100 109
e 100 111
e 100 132
e 100 168
e 100 178
e 101 102
e 101 103
e 101 104
e 101 105
e 101 106
e 101 107
e 101 108
e 101 109
e 101 124
e 101 143
e 101 154
e 101 161
e 102 103
e 102 104
e 102 105
e 102 106
e 102 107
e 102 108
e 102 109
e 102 114
e 102 125
e 102 134
e 102 155
e 102 162
e 103 104
e 103 105
e 103 106
e 103 107
e 103 108
e 103 109
e 103 126
e 103 144
e 103 181
e 104 105
e 104 106
e 104 107
e 104 108
e 104 109
e 104 115
e 104 127
e 104 145
e 104 163
e 104 171
e 104 182
e 105 106
e 105 107
e 105 108
e 105 109
e 105 128
e 105 136
e 105 147
e 105 164
e 105 173
e 105 184
e 106 107
e 106 108
e 106 109
e 106 116
e 106 137
e 106 148
e 106 165
e 106 185
e 107 108
e 107 109
e 107 117
e 107 138
e 107 149
e 107 174
e 107 186
e 108 109
e 108 118
e 108 129
e 108 139
e 108 166
e 108 175
e 108 187
e 109 158
e 109 167
e 109 176
e 109 188
e 110 111
e 110 112
e 110 113
e 110 114
e 110 115
e 110 116
e 110 117
e 110 118
e 110 119
e 110 120
e 110 131
e 110 141
e 110 150
e 110 159
e 111 112
e 111 113
e 111 114
e 111 115
e 111 116
e 111 117
e 111 118
e 111 119
e 111 132
e 111 168
e 111 178
e 112 113
e 112 114
e 112 115
e 112 116
e 112 117
e 112 118
e 112 119
e 112 122
e 112 152
e 112 160
e 112 169
e 112 179
e 113 114
e 113 115
e 113 116
e 113 117
e 113 118
e 113 119
e 113 123
e 113 133
e 113 142
e 113 153
e 113 170
e 113 180
e 114 115
e 114 116
e 114 117
e 114 118
e 114 119
e 114 125
e 114 134
e 114 155
e 114 162
e 115 116
e 115 117
e 115 118
e 115 119
e 115 127
e 115 145
e 115 163
e 115 171
e 115 182
e 116 117
e 116 118
e 116 119
e 116 137
e 116 148
e 116 165
e 116 185
e 117 118
e 117 119
e 117 138
e 117 149
e 117 174
e 117 186
e 118 119
e 118 129
e 118 139
e 118 166
e 118 175
e 118 187
e 119 130
e 119 140
e 119 157
e 120 121
e 120 122
e 120 123
e 120 124
e 120 125
e 120 126
e 120 127
e 120 128
e 120 129
e 120 130
e 120 131
e 120 141
e 120 150
e 120 159
e 121 122
e 121 123
e 121 124
e 121 125
e 121 126
e 121 127
e 121 128
e 121 129
e 121 130
e 121 151
e 121 177
e 122 123
e 122 124
e 122 125
e 122 126
e 122 127
e 122 128
e 122 129
e 122 130
e 122 152
e 122 160
e 122 169
e 122 179
e 123 124
e 123 125
e 123 126
e 123 127
e 123 128
e 123 129
e 123 130
e 123 133
e 123 142
e 123 153
e 123 170
e 123 180
e 124 125
e 124 126
e 124 127
e 124 128
e 124 129
e 124 130
e 124 143
e 124 154
e 124 161
e 125 126
e 125 127
e 125 128
e 125 129
e 125 130
e 125 134
e 125 155
e 125 162
e 126 127
e 126 128
e 126 129
e 126 130
e 126 144
e 126 181
e 127 128
e 127 129
e 127 130
e 127 145
e 127 163
e 127 171
e 127 182
e 128 129
e 128 130
e 128 136
e 128 147
e 128 164
e 128 173
e 128 184
e 129 130
e 129 139
e 129 166
e 129 175
e 129 187
e 130 140
e 130 157
e 131 132
e 131 133
e 131 134
e 131 135
e 131 136
e 131 137
e 131 138
e 131 139
e 131 140
e 131 141
e 131 150
e 131 159
e 132 133
e 132 134
e 132 135
e 132 136
e 132 137
e 132 138
e 132 139
e 132 140
e 132 168
e 132 178
e 133 134
e 133 135
e 133 136
e 133 137
e 133 138
e 133 139
e 133 140
e 133 142
e 133 153
e 133 170
e 133 180
e 134 135
e 134 136
e 134 137
e 134 138
e 134 139
e 134 140
e 134 155
e 134 162
e 135 136
e 135 137
e 135 138
e 135 139
e 135 140
e 135 156
e 135 172
e 136 137
e 136 138
e 136 139
e 136 140
e 136 147
e 136 164
e 136 173
e 136 184
e 137 138
e 137 139
e 137 140
e 137 148
e 137 165
e 137 185
e 138 139
e 138 140
e 138 149
e 138 174
e 138 186
e 139 140
e 139 166
e 139 175
e 139 187
e 140 157
e 141 142
e 141 143
e 141 144
e 141 145
e 141 146
e 141 147
e 141 148
e 141 149
e 141 150
e 141 159
e 142 143
e 142 144
e 142 145
e 142 146
e 142 147
e 142 148
e 142 149
e 142 153
e 142 170
e 142 180
e 143 144
e 143 145
e 143 146
e 143 147
e 143 148
e 143 149
e 143 154
e 143 161
e 144 145
e 144 146
e 144 147
e 144 148
e 144 149
e 144 181
e 145 146
e 145 147
e 145 148
e 145 149
e 145 163
e 145 171
e 145 182
e 146 147
e 146 148
e 146 149
e 146 183
e 147 148
e 147 149
e 147 164
e 147 173
e 147 184
e 148 149
e 148 165
e 148 185
e 149 174
e 149 186
e 150 151
e 150 152
e 150 153
e 150 154
e 150 155
e 150 156
e 150 157
e 150 158
e 150 159
e 151 152
e 151 153
e 151 154
e 151 155
e 151 156
e 151 157
e 151 158
e 151 177
e 152 153
e 152 154
e 152 155
e 152 156
e 152 157
e 152 158
e 152 160
e 152 169
e 152 179
e 153 154
e 153 155
e 153 156
e 153 157
e 153 158
e 153 170
e 153 180
e 154 155
e 154 156
e 154 157
e 154 158
e 154 161
e 155 156
e 155 157
e 155 158
e 155 162
e 156 157
e 156 158
e 156 172
e 157 158
e 158 167
e 158 176
e 158 188
e 159 160
e 159 161
e 159 162
e 159 163
e 159 164
e 159 165
e 159 166
e 159 167
e 160 161
e 160 162
e 160 163
e 160 164
e 160 165
e 160 166
e 160 167
e 160 169
e 160 179
e 161 162
e 161 163
e 161 164
e 161 165
e 161 166
e 161 167
e 162 163
e 162 164
e 162 165
e 162 166
e 162 167
e 163 164
e 163 165
e 163 166
e 163 167
e 163 171
e 163 182
e 164 165
e 164 166
e 164 167
e 164 173
e 164 184
e 165 166
e 165 167
e 165 185
e 166 167
e 166 175
e 166 187
e 167 176
e 167 188
e 168 169
e 168 170
e 168 171
e 168 172
e 168 173
e 168 174
e 168 175
e 168 176
e 168 178
e 169 170
e 169 171
e 169 172
e 169 173
e 169 174
e 169 175
e 169 176
e 169 179
e 170 171
e 170 172
e 170 173
e 170 174
e 170 175
e 170 176
e 170 180
e 171 172
e 171 173
e 171 174
e 171 175
e 171 176
e 171 182
e 172 173
e 172 174
e 172 175
e 172 176
e 173 174
e 173 175
e 173 176
e 173 184
e 174 175
e 174 176
e 174 186
e 175 176
e 175 187
e 176 188
e 177 178
e 177 179
e 177 180
e 177 181
e 177 182
e 177 183
e 177 184
e 177 185
e 177 186
e 177 187
e 177 188
e 178 179
e 178 180
e 178 181
e 178 182
e 178 183
e 178 184
e 178 185
e 178 186
e 178 187
e 178 188
e 179 180
e 179 181
e 179 182
e 179 183
e 179 184
e 179 185
e 179 186
e 179 187
e 179 188
e 180 181
e 180 182
e 180 183
e 180 184
e 180 185
e 180 186
e 180 187
e 180 188
e 181 182
e 181 183
e 181 184
e 181 185
e 181 186
e 181 187
e 181 188
e 182 183
e 182 184
e 182 185
e 182 186
e 182 187
e 182 188
e 183 184
e 183 185
e 183 186
e 183 187
e 183 188
e 184 185
e 184 186
e 184 187
e 184 188
e 185 186
e 185 187
e 185 188
e 186 187
e 186 188
e 187 188
